benchmarks_vrp/CMT1/min_c/CMT1_1.vrp
NAME: CMT1_1
TYPE: CVRP
COMMENT: 524.61 - Cluster Nr.1
DIMENSION: 7
CAPACITY: 160
EDGE_WEIGHT_TYPE: EUC_2D
NODE_COORD_TYPE: TWOD_COORDS
NODE_COORD_SECTION: 
7 5 25
2 25 32
5 17 33
3 12 42
6 30 40
1 7 38
4 20 26
DEPOT_SECTION: 
6
-1
DEMAND_SECTION: 
7 23
1 28
3 21
2 25
4 9
6 0
5 41
EOF
