benchmarks_vrp/CMT1/min_c/CMT1_1.tour
NAME: CMT1_1 solution
TYPE: TOUR
TOUR_SECTION:
6 2 4 7 1 3 5 -1
-1
EOF